
Gurobi 11.0.2 (linux64) logging started Tue 03 Dec 2024 09:05:51 AM CET

Set parameter LogFile to value "./res/knapPI_11_50_1000/knapPI_11_50_1000_58/grb_dom.log"
Set parameter Presolve to value 0
Set parameter Aggregate to value 0
Set parameter Heuristics to value 0
Set parameter LPWarmStart to value 0
Set parameter NLPHeur to value 0
Set parameter PreDepRow to value 0
Set parameter PreDual to value 0
Set parameter RINS to value 0
Set parameter Symmetry to value 0
Set parameter NodeLimit to value 1
Set parameter Threads to value 1

Gurobi 11.0.2 (linux64) logging started Tue 03 Dec 2024 09:05:52 AM CET

Set parameter LogFile to value "./res/knapPI_11_50_1000/knapPI_11_50_1000_58/grb_dom.log"
Set parameter NLPHeur to value 0
Set parameter LPWarmStart to value 0
Set parameter PreDepRow to value 0
Set parameter Symmetry to value 0
Set parameter Presolve to value 0
Gurobi Optimizer version 11.0.2 build v11.0.2rc0 (linux64 - "Pop!_OS 20.04 LTS")

CPU model: Intel(R) Core(TM) i7-8650U CPU @ 1.90GHz, instruction set [SSE2|AVX|AVX2]
Thread count: 4 physical cores, 4 logical processors, using up to 1 threads

Optimize a model with 8344 rows, 50 columns and 72762 nonzeros
Model fingerprint: 0x0979f8a8
Variable types: 0 continuous, 50 integer (50 binary)
Coefficient statistics:
  Matrix range     [1e+00, 1e+03]
  Objective range  [1e+02, 1e+03]
  Bounds range     [0e+00, 0e+00]
  RHS range        [1e+04, 1e+04]
Variable types: 0 continuous, 50 integer (50 binary)

Root relaxation: objective 2.572257e+04, 1 iterations, 0.02 seconds (0.00 work units)

    Nodes    |    Current Node    |     Objective Bounds      |     Work
 Expl Unexpl |  Obj  Depth IntInf | Incumbent    BestBd   Gap | It/Node Time

     0     0 25722.5652    0    1          - 25722.5652      -     -    0s
     0     0 25722.5652    0    1          - 25722.5652      -     -    0s
     0     0 25722.5652    0    2          - 25722.5652      -     -    0s
     0     0 25722.5652    0    3          - 25722.5652      -     -    0s
     0     0 25722.5652    0    2          - 25722.5652      -     -    0s
     0     0 25722.5652    0    1          - 25722.5652      -     -    0s
     0     0 25722.5652    0    2          - 25722.5652      -     -    0s
     0     0 25722.5652    0    2          - 25722.5652      -     -    0s
*    0     0               0    25649.000000 25649.0000  0.00%     -    0s

Cutting planes:
  StrongCG: 2
  RLT: 2

Explored 1 nodes (21 simplex iterations) in 0.53 seconds (0.18 work units)
Thread count was 1 (of 4 available processors)

Solution count 1: 25649 

Optimal solution found (tolerance 1.00e-04)
Best objective 2.564900000000e+04, best bound 2.564900000000e+04, gap 0.0000%

User-callback calls 287, time in user-callback 0.00 sec
opt = true
obj = 25649.0
nb_dom_cuts = 8343
solved_time = 0.5275
opt_val = 25649.0
